<number of tasks>
35

<cycle time>
69

<task times>
1 29
2 3
3 5
4 22
5 6
6 14
7 2
8 5
9 22
10 30
11 23
12 30
13 23
14 2
15 19
16 29
17 2
18 2
19 19
20 29
21 6
22 10
23 16
24 23
25 5
26 5
27 5
28 40
29 2
30 5
31 5
32 1
33 40
34 2
35 2

<precedence relations>
1,2
1,5
1,10
1,12
2,3
3,4
4,11
5,6
6,7
6,8
7,14
7,18
8,9
9,13
10,14
11,28
11,33
12,18
13,28
13,33
14,15
15,16
16,21
17,20
18,19
19,20
20,21
21,22
21,25
21,30
22,23
23,24
24,27
25,26
26,27
27,28
27,33
27,34
28,29
30,31
31,32
32,33
33,35

<setup times forward>
1,10:1
1,12:1
2,9:1
2,10:1
2,12:1
2,13:1
2,14:1
2,16:1
2,18:1
2,21:1
2,22:1
2,30:1
2,31:1
2,32:1
2,34:1
3,4:1
3,9:1
3,10:1
3,12:1
3,13:1
3,14:1
3,16:1
3,18:1
3,21:1
3,22:1
3,30:1
3,31:1
3,32:1
3,34:1
4,5:1
4,6:1
4,7:1
4,8:1
4,15:1
4,17:1
4,19:1
4,20:1
4,23:1
4,24:1
4,25:1
4,26:1
4,27:1
4,30:2
4,31:2
4,32:2
4,34:2
5,4:1
5,10:1
5,11:1
5,12:1
6,4:1
6,10:1
6,11:1
6,12:1
7,4:1
7,9:1
7,10:1
7,11:1
7,12:1
7,13:1
7,14:1
7,18:1
8,4:1
8,9:1
8,10:1
8,11:1
8,12:1
8,14:1
8,16:1
8,18:1
8,21:1
8,22:1
8,30:1
8,31:1
8,32:1
8,34:1
9,2:1
9,3:1
9,7:1
9,15:1
9,17:1
9,19:1
9,20:1
9,23:1
9,24:1
9,25:1
9,26:1
9,27:1
9,30:2
9,31:2
9,32:2
9,34:2
10,2:1
10,3:1
10,5:1
10,6:1
10,7:1
10,8:1
10,17:1
10,19:1
10,20:1
11,5:1
11,6:1
11,7:1
11,8:1
11,15:1
11,17:1
11,19:1
11,20:1
11,23:1
11,24:1
11,25:1
11,26:1
11,27:1
11,28:1
11,30:2
11,31:2
11,32:2
11,33:2
11,34:2
12,2:1
12,3:1
12,5:1
12,6:1
12,7:1
12,8:1
12,15:1
12,17:1
13,2:1
13,3:1
13,7:1
13,15:1
13,17:1
13,19:1
13,20:1
13,23:1
13,24:1
13,25:1
13,26:1
13,27:1
13,28:1
13,30:2
13,31:2
13,32:2
13,33:2
13,34:2
14,2:1
14,3:1
14,8:1
14,15:1
14,17:1
14,19:1
14,20:1
15,4:1
15,9:1
15,11:1
15,12:1
15,13:1
15,16:1
15,18:1
16,2:1
16,3:1
16,8:1
16,17:1
16,19:1
16,20:1
17,4:1
17,9:1
17,10:1
17,11:1
17,12:1
17,13:1
17,14:1
17,16:1
17,18:1
18,2:1
18,3:1
18,8:1
18,15:1
18,17:1
18,19:1
19,4:1
19,9:1
19,10:1
19,11:1
19,13:1
19,14:1
19,16:1
20,4:1
20,9:1
20,10:1
20,11:1
20,13:1
20,14:1
20,16:1
20,21:1
21,2:1
21,3:1
21,8:1
21,25:1
21,30:2
22,2:1
22,3:1
22,8:1
22,23:1
22,25:1
22,26:1
22,30:2
22,31:2
22,32:2
23,4:1
23,9:1
23,11:1
23,13:1
23,30:1
23,31:1
23,32:1
24,4:1
24,9:1
24,11:1
24,13:1
24,30:1
24,31:1
24,32:1
25,4:1
25,9:1
25,11:1
25,13:1
25,22:1
25,30:1
25,31:1
25,32:1
26,4:1
26,9:1
26,11:1
26,13:1
26,22:1
26,30:1
26,31:1
26,32:1
27,4:1
27,9:1
27,11:1
27,13:1
27,30:1
27,31:1
27,32:1
27,33:1
27,34:1
28,29:1
28,30:1
28,31:1
28,32:1
28,33:1
28,34:1
28,35:1
30,2:1
30,3:1
30,4:2
30,8:1
30,9:2
30,11:2
30,13:2
30,22:2
30,23:1
30,24:1
30,25:1
30,26:1
30,27:1
30,28:1
31,2:1
31,3:1
31,4:2
31,8:1
31,9:2
31,11:2
31,13:2
31,22:2
31,23:1
31,24:1
31,25:1
31,26:1
31,27:1
31,28:1
32,2:1
32,3:1
32,4:2
32,8:1
32,9:2
32,11:2
32,13:2
32,22:2
32,23:1
32,24:1
32,25:1
32,26:1
32,27:1
32,28:1
33,28:1
34,2:1
34,3:1
34,4:2
34,8:1
34,9:2
34,11:2
34,13:2
34,28:1
35,28:1

<setup times backward>
1,1:1
1,17:1
2,1:1
2,2:1
2,5:1
2,6:1
2,7:1
2,8:1
2,15:1
2,17:1
2,19:1
2,20:1
2,23:1
2,24:1
2,25:1
2,26:1
2,27:1
2,30:2
2,31:2
2,32:2
2,34:2
3,1:1
3,2:1
3,3:1
3,5:1
3,6:1
3,7:1
3,8:1
3,15:1
3,17:1
3,19:1
3,20:1
3,23:1
3,24:1
3,25:1
3,26:1
3,27:1
3,30:2
3,31:2
3,32:2
3,34:2
4,1:2
4,2:2
4,3:2
4,4:1
4,5:2
4,6:2
4,7:2
4,8:2
4,9:1
4,10:1
4,12:1
4,13:1
4,14:1
4,15:2
4,16:1
4,17:2
4,18:1
4,19:2
4,20:2
4,21:1
4,22:1
4,23:2
4,24:2
4,25:2
4,26:2
4,27:2
4,30:3
4,31:3
4,32:3
4,34:3
5,1:1
5,2:1
5,3:1
5,5:1
5,17:1
6,1:1
6,2:1
6,3:1
6,5:1
6,6:1
6,17:1
7,1:1
7,2:1
7,3:1
7,5:1
7,6:1
7,7:1
7,8:1
7,17:1
8,1:1
8,2:1
8,3:1
8,5:1
8,6:1
8,7:1
8,8:1
8,15:1
8,17:1
8,19:1
8,20:1
8,23:1
8,24:1
8,25:1
8,26:1
8,27:1
8,30:2
8,31:2
8,32:2
8,34:2
9,1:2
9,2:2
9,3:2
9,4:1
9,5:2
9,6:2
9,7:2
9,8:2
9,9:1
9,10:1
9,11:1
9,12:1
9,14:1
9,15:2
9,16:1
9,17:2
9,18:1
9,19:2
9,20:2
9,21:1
9,22:1
9,23:2
9,24:2
9,25:2
9,26:2
9,27:2
9,30:3
9,31:3
9,32:3
9,34:3
10,1:2
10,2:2
10,3:2
10,4:1
10,5:2
10,6:2
10,7:2
10,8:2
10,9:1
10,10:1
10,11:1
10,12:1
10,13:1
10,17:2
10,18:1
10,19:2
10,20:2
11,1:2
11,2:2
11,3:2
11,4:1
11,5:2
11,6:2
11,7:2
11,8:2
11,9:1
11,10:1
11,11:1
11,12:1
11,13:1
11,14:1
11,15:2
11,16:1
11,17:2
11,18:1
11,19:2
11,20:2
11,21:1
11,22:1
11,23:2
11,24:2
11,25:2
11,26:2
11,27:2
11,30:3
11,31:3
11,32:3
11,34:3
12,1:2
12,2:2
12,3:2
12,4:1
12,5:2
12,6:2
12,7:2
12,8:2
12,9:1
12,10:1
12,11:1
12,12:1
12,13:1
12,14:1
12,15:2
12,16:1
12,17:2
13,1:2
13,2:2
13,3:2
13,4:1
13,5:2
13,6:2
13,7:2
13,8:2
13,9:1
13,10:1
13,11:1
13,12:1
13,13:1
13,14:1
13,15:2
13,16:1
13,17:2
13,18:1
13,19:2
13,20:2
13,21:1
13,22:1
13,23:2
13,24:2
13,25:2
13,26:2
13,27:2
13,30:3
13,31:3
13,32:3
13,34:3
14,1:2
14,2:2
14,3:2
14,4:1
14,5:2
14,6:2
14,7:2
14,8:2
14,9:1
14,10:1
14,11:1
14,12:1
14,13:1
14,14:1
14,17:2
14,18:1
14,19:2
14,20:2
15,1:1
15,2:1
15,3:1
15,5:1
15,6:1
15,7:1
15,8:1
15,15:1
15,17:1
15,19:1
15,20:1
16,1:2
16,2:2
16,3:2
16,4:1
16,5:2
16,6:2
16,7:2
16,8:2
16,9:1
16,10:1
16,11:1
16,12:1
16,13:1
16,14:1
16,15:2
16,16:1
16,17:2
16,18:1
16,19:2
16,20:2
17,1:1
17,2:1
17,3:1
17,5:1
17,6:1
17,7:1
17,8:1
17,15:1
17,17:1
17,19:1
18,1:2
18,2:2
18,3:2
18,4:1
18,5:2
18,6:2
18,7:2
18,8:2
18,9:1
18,10:1
18,11:1
18,12:1
18,13:1
18,14:1
18,15:2
18,16:1
18,17:2
18,18:1
19,1:1
19,2:1
19,3:1
19,5:1
19,6:1
19,7:1
19,8:1
19,15:1
19,17:1
19,19:1
20,1:1
20,2:1
20,3:1
20,5:1
20,6:1
20,7:1
20,8:1
20,15:1
20,17:1
20,19:1
20,20:1
21,1:2
21,2:2
21,3:2
21,4:1
21,5:2
21,6:2
21,7:2
21,8:2
21,9:1
21,10:1
21,11:1
21,12:1
21,13:1
21,14:1
21,15:2
21,16:1
21,17:2
21,18:1
21,19:2
21,20:2
21,21:1
22,1:2
22,2:2
22,3:2
22,4:1
22,5:2
22,6:2
22,7:2
22,8:2
22,9:1
22,10:1
22,11:1
22,12:1
22,13:1
22,14:1
22,15:2
22,16:1
22,17:2
22,18:1
22,19:2
22,20:2
22,21:1
22,22:1
22,25:2
22,26:2
22,30:3
22,31:3
22,32:3
23,1:1
23,2:1
23,3:1
23,5:1
23,6:1
23,7:1
23,8:1
23,15:1
23,17:1
23,19:1
23,20:1
23,23:1
23,25:1
23,26:1
23,30:2
23,31:2
23,32:2
24,1:1
24,2:1
24,3:1
24,5:1
24,6:1
24,7:1
24,8:1
24,15:1
24,17:1
24,19:1
24,20:1
24,23:1
24,24:1
24,25:1
24,26:1
24,30:2
24,31:2
24,32:2
25,1:1
25,2:1
25,3:1
25,5:1
25,6:1
25,7:1
25,8:1
25,15:1
25,17:1
25,19:1
25,20:1
25,23:1
25,24:1
25,25:1
25,30:2
25,31:2
25,32:2
26,1:1
26,2:1
26,3:1
26,5:1
26,6:1
26,7:1
26,8:1
26,15:1
26,17:1
26,19:1
26,20:1
26,23:1
26,24:1
26,25:1
26,26:1
26,30:2
26,31:2
26,32:2
27,1:1
27,2:1
27,3:1
27,5:1
27,6:1
27,7:1
27,8:1
27,15:1
27,17:1
27,19:1
27,20:1
27,23:1
27,24:1
27,25:1
27,26:1
27,27:1
27,30:2
27,31:2
27,32:2
28,1:1
28,2:1
28,3:1
28,5:1
28,6:1
28,7:1
28,8:1
28,15:1
28,17:1
28,19:1
28,20:1
28,23:1
28,24:1
28,25:1
28,26:1
28,27:1
28,28:1
28,30:2
28,31:2
28,32:2
28,33:2
28,34:2
28,35:2
29,29:1
29,30:1
29,31:1
29,32:1
29,33:1
29,34:1
29,35:1
30,29:1
30,30:1
30,34:1
31,29:1
31,30:1
31,31:1
31,34:1
32,29:1
32,30:1
32,31:1
32,32:1
32,34:1
33,29:1
33,30:1
33,31:1
33,32:1
33,33:1
33,34:1
34,29:1
34,30:1
34,31:1
34,32:1
34,33:1
34,34:1
34,35:1
35,29:1
35,30:1
35,31:1
35,32:1
35,33:1
35,34:1
35,35:1

<end>

<optimal SALBP-1 value>
8


<rand seed>
467321153

<Lower Bounds>
Lm1=7
Lms1=7
Lm2=2
Lm3=5
Lm4=8
Best=8

<Optimal Stations (Iterations: 10)>
9
